num_offers = 40;
num_halls = 10;
start=[5,33,17,52,27,31,30,20,1,12,56,38,24,8,32,23,3,12,14,44,28,1,77,30,60,35,7,3,31,2,55,30,18,51,33,2,22,5,81,28];
end=[77,71,95,79,87,60,89,96,80,64,77,91,37,89,54,48,57,24,87,64,91,13,81,89,84,84,54,6,46,71,68,51,23,80,34,90,28,57,83,59];
price=[2411,3036,2210,1185,2018,1996,5940,4355,1384,3021,497,5290,404,5075,758,1068,2391,1137,742,500,5114,1010,491,2166,2206,3413,3039,312,1238,780,1348,1168,154,1739,189,5076,325,3344,289,3112];
requirement=[482,672,542,569,486,740,358,996,327,610,299,299,843,415,552,272,488,932,808,398,639,572,581,444,723,464,621,794,395,628,350,684,532,684,588,821,420,429,526,392];
capacity=[265,727,448,645,993,629,399,622,907,321];
